
Gurobi 7.5.1 (linux64, Python) logging started Sun Apr  5 11:12:21 2020


Gurobi 7.5.1 (linux64, Python) logging started Sun Apr  5 11:31:48 2020


Gurobi 7.5.1 (linux64, Python) logging started Sun Apr  5 11:34:03 2020


Gurobi 7.5.1 (linux64, Python) logging started Sun Apr  5 11:42:54 2020


Gurobi 7.5.1 (linux64, Python) logging started Sun Apr  5 12:18:39 2020

Parameter OutputFlag unchanged
   Value: 1  Min: 0  Max: 1  Default: 1
Changed value of parameter TimeLimit to 3600.0
   Prev: 1e+100  Min: 0.0  Max: 1e+100  Default: 1e+100
Changed value of parameter lazyConstraints to 1
   Prev: 0  Min: 0  Max: 1  Default: 0
Optimize a model with 84 rows, 289 columns and 1219 nonzeros
Variable types: 0 continuous, 289 integer (289 binary)
Coefficient statistics:
  Matrix range     [5e-02, 1e+00]
  Objective range  [1e-01, 2e+00]
  Bounds range     [1e+00, 1e+00]
  RHS range        [7e-01, 2e+00]
Found heuristic solution: objective 3.43708
Presolve removed 51 rows and 49 columns
Presolve time: 0.00s
Presolved: 33 rows, 240 columns, 1154 nonzeros
Variable types: 0 continuous, 240 integer (240 binary)

Root relaxation: objective 8.176065e-01, 4 iterations, 0.00 seconds

    Nodes    |    Current Node    |     Objective Bounds      |     Work
 Expl Unexpl |  Obj  Depth IntInf | Incumbent    BestBd   Gap | It/Node Time

     0     0    0.81761    0    2    3.43708    0.81761  76.2%     -    0s
H    0     0                       2.9128929    0.81761  71.9%     -    0s
     0     0    0.96782    0    8    2.91289    0.96782  66.8%     -    0s
     0     0    1.03992    0    8    2.91289    1.03992  64.3%     -    0s
     0     0    1.12054    0   10    2.91289    1.12054  61.5%     -    0s
     0     0    1.12325    0    9    2.91289    1.12325  61.4%     -    0s
     0     0    1.24197    0   10    2.91289    1.24197  57.4%     -    0s
     0     0    1.24524    0   10    2.91289    1.24524  57.3%     -    0s
     0     0    1.25148    0    7    2.91289    1.25148  57.0%     -    0s
     0     0    1.25668    0   10    2.91289    1.25668  56.9%     -    0s
     0     0    1.26022    0   12    2.91289    1.26022  56.7%     -    0s
     0     0    1.26999    0    6    2.91289    1.26999  56.4%     -    0s
     0     0    1.27295    0    8    2.91289    1.27295  56.3%     -    0s
     0     2    1.27295    0    8    2.91289    1.27295  56.3%     -    0s
H  464   240                       2.8197724    1.36038  51.8%   3.0    0s
H  520   135                       2.0878535    1.36038  34.8%   3.1    0s
H  684    96                       1.7290272    1.36038  21.3%   3.2    0s

Cutting planes:
  Gomory: 2
  Cover: 2
  MIR: 12
  StrongCG: 2
  GUB cover: 3
  Lazy constraints: 194

Explored 1112 nodes (3386 simplex iterations) in 0.25 seconds
Thread count was 12 (of 12 available processors)

Solution count 5: 1.72903 2.08785 2.81977 ... 3.43708

Optimal solution found (tolerance 1.00e-04)
Best objective 1.729027199345e+00, best bound 1.729027199345e+00, gap 0.0000%
Parameter OutputFlag unchanged
   Value: 1  Min: 0  Max: 1  Default: 1
Changed value of parameter TimeLimit to 3600.0
   Prev: 1e+100  Min: 0.0  Max: 1e+100  Default: 1e+100
Changed value of parameter lazyConstraints to 1
   Prev: 0  Min: 0  Max: 1  Default: 0
Optimize a model with 84 rows, 289 columns and 1219 nonzeros
Variable types: 0 continuous, 289 integer (289 binary)
Coefficient statistics:
  Matrix range     [5e-02, 1e+00]
  Objective range  [5e-02, 2e+00]
  Bounds range     [1e+00, 1e+00]
  RHS range        [5e-01, 2e+00]
Found heuristic solution: objective 5.46963
Presolve removed 51 rows and 49 columns
Presolve time: 0.00s
Presolved: 33 rows, 240 columns, 1154 nonzeros
Variable types: 0 continuous, 240 integer (240 binary)

Root relaxation: objective 4.377001e-01, 5 iterations, 0.00 seconds

    Nodes    |    Current Node    |     Objective Bounds      |     Work
 Expl Unexpl |  Obj  Depth IntInf | Incumbent    BestBd   Gap | It/Node Time

     0     0    0.43770    0    2    5.46963    0.43770  92.0%     -    0s
H    0     0                       2.8595466    0.43770  84.7%     -    0s
     0     0    0.52481    0    8    2.85955    0.52481  81.6%     -    0s
     0     0    0.55231    0    8    2.85955    0.55231  80.7%     -    0s
     0     0    0.70135    0   10    2.85955    0.70135  75.5%     -    0s
     0     0    0.70632    0    8    2.85955    0.70632  75.3%     -    0s
     0     0    0.72050    0    8    2.85955    0.72050  74.8%     -    0s
     0     0    0.72711    0    7    2.85955    0.72711  74.6%     -    0s
     0     0    0.72711    0   11    2.85955    0.72711  74.6%     -    0s
     0     0    0.73104    0   16    2.85955    0.73104  74.4%     -    0s
     0     0    0.73192    0   18    2.85955    0.73192  74.4%     -    0s
     0     0    0.75228    0   15    2.85955    0.75228  73.7%     -    0s
     0     0    0.75254    0   16    2.85955    0.75254  73.7%     -    0s
     0     0    0.75558    0   18    2.85955    0.75558  73.6%     -    0s
     0     0    0.75566    0   19    2.85955    0.75566  73.6%     -    0s
     0     0    0.76499    0   18    2.85955    0.76499  73.2%     -    0s
     0     0    0.76580    0   20    2.85955    0.76580  73.2%     -    0s
     0     0    0.77092    0   10    2.85955    0.77092  73.0%     -    0s
     0     0    0.77238    0   18    2.85955    0.77238  73.0%     -    0s
     0     0    0.77250    0   20    2.85955    0.77250  73.0%     -    0s
     0     0    0.78204    0   20    2.85955    0.78204  72.7%     -    0s
     0     0    0.78244    0   19    2.85955    0.78244  72.6%     -    0s
     0     2    0.78244    0   19    2.85955    0.78244  72.6%     -    0s
*   27    27               4       1.6278148    0.81418  50.0%   5.5    0s
*  124    29               8       1.6232020    0.84434  48.0%   4.3    0s
*  131    30               8       1.5698028    0.84434  46.2%   4.1    0s
H  211    25                       1.3594471    0.93741  31.0%   3.8    0s
*  248    18              11       1.2793345    0.93892  26.6%   3.5    0s
H  251    16                       1.2514114    0.94143  24.8%   3.5    0s
H  252    16                       1.2381177    0.94353  23.8%   3.4    0s
*  302     6              19       1.2036676    1.04730  13.0%   3.4    0s
*  303     3              21       1.1884954    1.04730  11.9%   3.4    0s

Cutting planes:
  Gomory: 2
  Cover: 1
  MIR: 13
  StrongCG: 2
  Lazy constraints: 68

Explored 326 nodes (1150 simplex iterations) in 0.13 seconds
Thread count was 12 (of 12 available processors)

Solution count 10: 1.1885 1.20367 1.23812 ... 2.85955

Optimal solution found (tolerance 1.00e-04)
Best objective 1.188495379205e+00, best bound 1.188495379205e+00, gap 0.0000%
Parameter OutputFlag unchanged
   Value: 1  Min: 0  Max: 1  Default: 1
Changed value of parameter TimeLimit to 3600.0
   Prev: 1e+100  Min: 0.0  Max: 1e+100  Default: 1e+100
Changed value of parameter lazyConstraints to 1
   Prev: 0  Min: 0  Max: 1  Default: 0
Optimize a model with 84 rows, 289 columns and 1219 nonzeros
Variable types: 0 continuous, 289 integer (289 binary)
Coefficient statistics:
  Matrix range     [6e-02, 1e+00]
  Objective range  [9e-02, 2e+00]
  Bounds range     [1e+00, 1e+00]
  RHS range        [7e-01, 2e+00]
Found heuristic solution: objective 5.81756
Presolve removed 51 rows and 49 columns
Presolve time: 0.00s
Presolved: 33 rows, 240 columns, 1154 nonzeros
Variable types: 0 continuous, 240 integer (240 binary)

Root relaxation: objective 9.888432e-01, 5 iterations, 0.00 seconds

    Nodes    |    Current Node    |     Objective Bounds      |     Work
 Expl Unexpl |  Obj  Depth IntInf | Incumbent    BestBd   Gap | It/Node Time

     0     0    0.98884    0    2    5.81756    0.98884  83.0%     -    0s
     0     0    1.06855    0    2    5.81756    1.06855  81.6%     -    0s
H    0     0                       3.2137865    1.06855  66.8%     -    0s
     0     0    1.13220    0   10    3.21379    1.13220  64.8%     -    0s
     0     0    1.14744    0   13    3.21379    1.14744  64.3%     -    0s
     0     0    1.33921    0   10    3.21379    1.33921  58.3%     -    0s
     0     0    1.36394    0   12    3.21379    1.36394  57.6%     -    0s
     0     0    1.36394    0    9    3.21379    1.36394  57.6%     -    0s
     0     0    1.36394    0   12    3.21379    1.36394  57.6%     -    0s
     0     0    1.36394    0   12    3.21379    1.36394  57.6%     -    0s
H    0     0                       1.8007714    1.36394  24.3%     -    0s
     0     0    1.36394    0    8    1.80077    1.36394  24.3%     -    0s
     0     0    1.36394    0    3    1.80077    1.36394  24.3%     -    0s
     0     0    1.36394    0    9    1.80077    1.36394  24.3%     -    0s
     0     0    1.36946    0   12    1.80077    1.36946  24.0%     -    0s
     0     0    1.40454    0   12    1.80077    1.40454  22.0%     -    0s
     0     0    1.40460    0   15    1.80077    1.40460  22.0%     -    0s
     0     0    1.40596    0   10    1.80077    1.40596  21.9%     -    0s
     0     0    1.40596    0   10    1.80077    1.40596  21.9%     -    0s
     0     0    1.40601    0   12    1.80077    1.40601  21.9%     -    0s
     0     2    1.40601    0   12    1.80077    1.40601  21.9%     -    0s
H    7     8                       1.7667943    1.45734  17.5%   9.3    0s

Cutting planes:
  Gomory: 4
  MIR: 9
  StrongCG: 3
  Zero half: 5
  Lazy constraints: 3

Explored 197 nodes (769 simplex iterations) in 0.10 seconds
Thread count was 12 (of 12 available processors)

Solution count 4: 1.76679 1.80077 3.21379 5.81756 

Optimal solution found (tolerance 1.00e-04)
Best objective 1.766794333460e+00, best bound 1.766794333460e+00, gap 0.0000%
Parameter OutputFlag unchanged
   Value: 1  Min: 0  Max: 1  Default: 1
Changed value of parameter TimeLimit to 3600.0
   Prev: 1e+100  Min: 0.0  Max: 1e+100  Default: 1e+100
Changed value of parameter lazyConstraints to 1
   Prev: 0  Min: 0  Max: 1  Default: 0
Optimize a model with 84 rows, 289 columns and 1219 nonzeros
Variable types: 0 continuous, 289 integer (289 binary)
Coefficient statistics:
  Matrix range     [5e-02, 1e+00]
  Objective range  [9e-02, 2e+00]
  Bounds range     [1e+00, 1e+00]
  RHS range        [6e-01, 2e+00]
Found heuristic solution: objective 7.89689
Presolve removed 51 rows and 49 columns
Presolve time: 0.00s
Presolved: 33 rows, 240 columns, 1154 nonzeros
Variable types: 0 continuous, 240 integer (240 binary)

Root relaxation: objective 1.064534e+00, 5 iterations, 0.00 seconds

    Nodes    |    Current Node    |     Objective Bounds      |     Work
 Expl Unexpl |  Obj  Depth IntInf | Incumbent    BestBd   Gap | It/Node Time

     0     0    1.06453    0    2    7.89689    1.06453  86.5%     -    0s
     0     0    1.15888    0    6    7.89689    1.15888  85.3%     -    0s
     0     0    1.24622    0    2    7.89689    1.24622  84.2%     -    0s
     0     0    1.27868    0    6    7.89689    1.27868  83.8%     -    0s
     0     0    1.32537    0    6    7.89689    1.32537  83.2%     -    0s
H    0     0                       6.4002071    1.32537  79.3%     -    0s
     0     0    1.33124    0    6    6.40021    1.33124  79.2%     -    0s
     0     0    1.35204    0   10    6.40021    1.35204  78.9%     -    0s
     0     0    1.38591    0    9    6.40021    1.38591  78.3%     -    0s
     0     0    1.38809    0   14    6.40021    1.38809  78.3%     -    0s
     0     0    1.47928    0    6    6.40021    1.47928  76.9%     -    0s
     0     0    1.50769    0   12    6.40021    1.50769  76.4%     -    0s
     0     0    1.51135    0   17    6.40021    1.51135  76.4%     -    0s
H    0     0                       3.7752435    1.51135  60.0%     -    0s
     0     0    1.51276    0   16    3.77524    1.51276  59.9%     -    0s
     0     0    1.51924    0   18    3.77524    1.51924  59.8%     -    0s
     0     2    1.51924    0   18    3.77524    1.51924  59.8%     -    0s
*  325   229              28       3.5723209    1.63655  54.2%   3.9    0s
H  438   269                       3.4621558    1.63655  52.7%   4.0    0s
H  484   116                       2.2144469    1.63655  26.1%   4.0    0s

Cutting planes:
  Gomory: 1
  MIR: 13
  StrongCG: 2
  Lazy constraints: 141

Explored 1092 nodes (3888 simplex iterations) in 0.20 seconds
Thread count was 12 (of 12 available processors)

Solution count 6: 2.21445 3.46216 3.57232 ... 7.89689

Optimal solution found (tolerance 1.00e-04)
Best objective 2.214446933911e+00, best bound 2.214446933911e+00, gap 0.0000%
Parameter OutputFlag unchanged
   Value: 1  Min: 0  Max: 1  Default: 1
Changed value of parameter TimeLimit to 3600.0
   Prev: 1e+100  Min: 0.0  Max: 1e+100  Default: 1e+100
Changed value of parameter lazyConstraints to 1
   Prev: 0  Min: 0  Max: 1  Default: 0
Optimize a model with 84 rows, 289 columns and 1219 nonzeros
Variable types: 0 continuous, 289 integer (289 binary)
Coefficient statistics:
  Matrix range     [6e-02, 1e+00]
  Objective range  [2e-02, 2e+00]
  Bounds range     [1e+00, 1e+00]
  RHS range        [7e-01, 2e+00]
Found heuristic solution: objective 7.45611
Presolve removed 51 rows and 49 columns
Presolve time: 0.00s
Presolved: 33 rows, 240 columns, 1154 nonzeros
Variable types: 0 continuous, 240 integer (240 binary)

Root relaxation: objective 3.920638e-01, 4 iterations, 0.00 seconds

    Nodes    |    Current Node    |     Objective Bounds      |     Work
 Expl Unexpl |  Obj  Depth IntInf | Incumbent    BestBd   Gap | It/Node Time

     0     0    0.39206    0    2    7.45611    0.39206  94.7%     -    0s
     0     0    0.48183    0    4    7.45611    0.48183  93.5%     -    0s
     0     0    0.63223    0    8    7.45611    0.63223  91.5%     -    0s
     0     0    0.70691    0    7    7.45611    0.70691  90.5%     -    0s
     0     0    0.72035    0    9    7.45611    0.72035  90.3%     -    0s
     0     0    0.72035    0    9    7.45611    0.72035  90.3%     -    0s
     0     0    0.72035    0    9    7.45611    0.72035  90.3%     -    0s
     0     2    0.72035    0    9    7.45611    0.72035  90.3%     -    0s
* 1143   821              54       5.4021692    0.80557  85.1%   2.5    0s
* 1225   821             103       5.0624241    0.82385  83.7%   2.6    0s
* 1244   820             119       4.4712537    0.82385  81.6%   2.6    0s
* 2095  1337              54       4.1282952    0.94327  77.2%   2.8    0s
* 2097  1336              53       4.0484062    0.94327  76.7%   2.8    0s
* 2200  1322              86       3.8854758    0.94327  75.7%   2.9    0s
H 2203  1310                       3.7709369    0.94327  75.0%   2.9    0s
* 2643  1561              90       3.4618696    1.09184  68.5%   2.9    0s
H 5420  2450                       2.6769259    1.13084  57.8%   3.1    1s
H 5783  1982                       2.0216970    1.13084  44.1%   3.2    1s
* 7450   965              41       1.9761328    1.54226  22.0%   3.1    1s

Cutting planes:
  Gomory: 7
  Cover: 1
  MIR: 9
  StrongCG: 1
  Flow cover: 2
  Zero half: 9
  Lazy constraints: 1221

Explored 8286 nodes (24042 simplex iterations) in 1.84 seconds
Thread count was 12 (of 12 available processors)

Solution count 10: 1.97613 2.0217 2.67693 ... 5.06242

Optimal solution found (tolerance 1.00e-04)
Best objective 1.976132764609e+00, best bound 1.976132764609e+00, gap 0.0000%
Parameter OutputFlag unchanged
   Value: 1  Min: 0  Max: 1  Default: 1
Changed value of parameter TimeLimit to 3600.0
   Prev: 1e+100  Min: 0.0  Max: 1e+100  Default: 1e+100
Changed value of parameter lazyConstraints to 1
   Prev: 0  Min: 0  Max: 1  Default: 0
Optimize a model with 84 rows, 289 columns and 1219 nonzeros
Variable types: 0 continuous, 289 integer (289 binary)
Coefficient statistics:
  Matrix range     [5e-02, 1e+00]
  Objective range  [9e-02, 2e+00]
  Bounds range     [1e+00, 1e+00]
  RHS range        [6e-01, 2e+00]
Found heuristic solution: objective 5.12895
Presolve removed 51 rows and 49 columns
Presolve time: 0.00s
Presolved: 33 rows, 240 columns, 1154 nonzeros
Variable types: 0 continuous, 240 integer (240 binary)

Root relaxation: objective 1.287832e+00, 7 iterations, 0.00 seconds

    Nodes    |    Current Node    |     Objective Bounds      |     Work
 Expl Unexpl |  Obj  Depth IntInf | Incumbent    BestBd   Gap | It/Node Time

     0     0    1.28783    0    2    5.12895    1.28783  74.9%     -    0s
     0     0    1.35600    0    2    5.12895    1.35600  73.6%     -    0s
     0     0    1.35799    0    4    5.12895    1.35799  73.5%     -    0s
     0     0    1.36505    0    4    5.12895    1.36505  73.4%     -    0s
H    0     0                       1.9496877    1.36505  30.0%     -    0s
     0     0    1.40472    0   10    1.94969    1.40472  28.0%     -    0s
     0     0    1.50469    0    6    1.94969    1.50469  22.8%     -    0s
     0     0    1.50469    0    9    1.94969    1.50469  22.8%     -    0s
     0     0    1.50469    0    4    1.94969    1.50469  22.8%     -    0s
     0     0    1.50469    0    6    1.94969    1.50469  22.8%     -    0s
     0     0    1.51103    0    8    1.94969    1.51103  22.5%     -    0s
H    0     0                       1.9026526    1.51103  20.6%     -    0s
     0     0    1.51358    0   10    1.90265    1.51358  20.4%     -    0s
     0     0    1.51421    0   13    1.90265    1.51421  20.4%     -    0s
     0     0    1.51520    0   13    1.90265    1.51520  20.4%     -    0s
     0     0    1.51520    0   12    1.90265    1.51520  20.4%     -    0s
     0     2    1.51520    0   12    1.90265    1.51520  20.4%     -    0s
H   15    14                       1.8796323    1.53851  18.1%   5.7    0s
H   20    15                       1.8764341    1.53851  18.0%   4.8    0s
*   38     7               6       1.8749753    1.54366  17.7%   4.3    0s

Cutting planes:
  Gomory: 6
  Cover: 1
  MIR: 7
  Zero half: 4
  Lazy constraints: 12

Explored 143 nodes (534 simplex iterations) in 0.08 seconds
Thread count was 12 (of 12 available processors)

Solution count 6: 1.87498 1.87643 1.87963 ... 5.12895

Optimal solution found (tolerance 1.00e-04)
Best objective 1.874975276203e+00, best bound 1.874975276203e+00, gap 0.0000%
